4 
5  14 37 52 
6  07 17 25 32 40 47 55 
7  02 10 17 25 32 40 47 55 
8  02 10 17 25 32 40 47 55 
9  02 10 25 40 55 
10  10 25 40 55 
11  10 25 40 55 
12  10 25 40 54 
13  09 24 39 54 
14  09 24 39 54 
15  02 09 17 24 32 39 47 54 
16  02 09 17 24 32 39 47 54 
17  02 09 17 24 32 39 46 54 
18  01 09 16 24 31 39 55 
19  10 25 40 55 
20  12 27 42 57 
21  12 27 42 57 
22  12 27 42 
23  00 
0 
